100
111
104
88
114
64
90
83
86
145
130
77
59
0
105
105
213
119
124
225
114
0
52
210
67
157
97
68
0
74
172
80
114
112
127
130
54
154
69
136
141
129
54
64
95
86
95
55
128
139
70
64
85
72
56
86
43
117
65
163
62
106
129
93
65
66
62
118
94
136
81
133
237
65
211
103
58
306
121
82
78
145
90
75
99
76
144
67
112
79
117
113
110
217
165
103
65
90
143
132
